
nObjects =5;
nRectangles =15;
nShapes =12;

% le premier rectangle est de largeur 4 et hauteur 2
rectSize = [|
     4, 2|
     2, 4|
     4, 2|
     2, 4|

     1, 2|
     2, 1|
     1, 2|
     2, 1|

     2, 1|
     1, 2|

     1, 1|
     1, 1|
     1, 1|
     3, 4|
     0,0|];

% Dans la forme le rectangle est à quelle position
rectOffset = [|
     0, 0|
     0, 0|
     0, 2|
     2, 0|

     2, 2|
     2, 1|
     1, 0|
     0, 2|

     0, 0|
     0, 0|

     0, 1|
     1, 1|
     0, 0|
     0, 0|
     0,0|];

% énumération des rectangles par exemple {14} = rect_size[14]
shape = [
    {14},


    { 1, 5 },
    { 2, 6 },
    { 3, 7 },
    { 4, 8 },

    { 9, 11 },
    { 10, 12 },
    { 7, 11 },
    { 7, 13 }, 

    { 9 },
    { 10 },
   
    {15}
];

% formes plus petites que le sac à dos, avec leur rotations
%   par exemple valid_shapes[2] est {2, 3, 4, 5}
%   et 2, 3, 4, 5 sont les rotations valides de la forme dans la liste shapes en haut
validShapes = [{1}, {2, 3, 4, 5},{6, 7, 8, 9},{10, 11},{12}];
l = [0, 0];
u = [4, 4];